WARNING: for repeatability, setting FPU to use double precision
============================[ Problem Statistics ]=============================
|                                                                             |
|  Number of variables:            50                                         |
|  Number of clauses:             218                                         |
|  Parse time:                   0.00 s                                       |
|                                                                             |
============================[ Search Statistics ]==============================
| Conflicts |          ORIGINAL         |          LEARNT          | Progress |
|           |    Vars  Clauses Literals |    Limit  Clauses Lit/Cl |          |
===============================================================================
===============================================================================
restarts              : 1
conflicts             : 65             (42044 /sec)
decisions             : 72             (0.00 % random) (46572 /sec)
propagations          : 992            (641656 /sec)
conflict literals     : 251            (15.20 % deleted)
Memory used           : 20.00 MB
CPU time              : 0.001546 s

UNSATISFIABLE
